============================[ Problem Statistics ]=============================|                                                                             ||  Number of variables:          4242                                         ||  Number of clauses:           10056                                         ||  Parse time:                   0.45 s                                       ||                                                                             |============================[ Search Statistics ]==============================| Conflicts |          ORIGINAL         |          LEARNT          | Progress ||           |    Vars  Clauses Literals |    Limit  Clauses Lit/Cl |          |===============================================================================|       100 |    1591     6261   708652 |     2295      100     53 | 62.501 % ||       250 |    1591     6261   708652 |     2525      250     75 | 62.495 % |===============================================================================restarts              : 3conflicts             : 252            (373 /sec)decisions             : 518            (0.00 % random) (766 /sec)propagations          : 11758          (17393 /sec)conflict literals     : 19065          (94.89 % deleted)CPU time              : 0.676 sSATISFIABLE